(set-logic ALL)
(declare-fun var0 () String)
(assert (str.in_re var0 (re.++ (re.union (re.+ (str.to_re "000")) (re.+ (str.to_re "1"))) (re.++ (re.union (re.* (str.to_re "2")) (re.* (str.to_re "333"))) (re.++ (re.union (re.* (str.to_re "444")) (re.* (str.to_re "5"))) (re.++ (re.union (re.* (str.to_re "666")) (re.* (str.to_re "777"))) (re.++ (re.+ (re.+ (str.to_re "88"))) (re.++ (re.+ (re.* (str.to_re "999"))) (re.++ (re.* (re.* (str.to_re "aaa"))) (re.++ (re.+ (re.+ (str.to_re "b"))) (re.++ (re.+ (re.union (str.to_re "ccc") (str.to_re "d"))) (re.++ (re.union (re.union (str.to_re "ee") (str.to_re "fff")) (re.union (str.to_re "ggg") (str.to_re "h"))) (re.++ (re.+ (re.union (str.to_re "iii") (str.to_re "j"))) (re.++ (re.* (re.union (str.to_re "kk") (str.to_re "ll"))) (re.++ (re.* (re.* (str.to_re "mmm"))) (re.++ (re.+ (re.union (str.to_re "nnn") (str.to_re "o"))) (re.++ (re.+ (re.+ (str.to_re "pp"))) (re.++ (re.union (re.union (str.to_re "qqq") (str.to_re "rrr")) (re.union (str.to_re "sss") (str.to_re "t"))) (re.++ (re.+ (re.union (str.to_re "uuu") (str.to_re "vv"))) (re.++ (re.* (re.* (str.to_re "w"))) (re.++ (re.union (re.* (str.to_re "xx")) (re.* (str.to_re "yyy"))) (re.++ (re.union (re.+ (str.to_re "zzz")) (re.+ (str.to_re "AA"))) (re.++ (re.* (re.union (str.to_re "BBB") (str.to_re "C"))) (re.++ (re.union (re.union (str.to_re "D") (str.to_re "E")) (re.union (str.to_re "F") (str.to_re "GGG"))) (re.++ (re.union (re.+ (str.to_re "HHH")) (re.+ (str.to_re "III"))) (re.++ (re.union (re.union (str.to_re "J") (str.to_re "KKK")) (re.union (str.to_re "LLL") (str.to_re "MMM"))) (re.++ (re.union (re.+ (str.to_re "NNN")) (re.+ (str.to_re "OO"))) (re.++ (re.+ (re.* (str.to_re "P"))) (re.++ (re.union (re.* (str.to_re "Q")) (re.* (str.to_re "R"))) (re.++ (re.union (re.union (str.to_re "SSS") (str.to_re "TTT")) (re.union (str.to_re "UU") (str.to_re "VVV"))) (re.++ (re.* (re.union (str.to_re "WW") (str.to_re "XXX"))) (re.++ (re.union (re.union (str.to_re "YYY") (str.to_re "ZZ")) (re.union (str.to_re "!!!") (str.to_re """"""))) (re.++ (re.* (re.+ (str.to_re "#"))) (re.++ (re.* (re.* (str.to_re "$"))) (re.++ (re.* (re.+ (str.to_re "%%%"))) (re.++ (re.union (re.union (str.to_re "&&&") (str.to_re "'''")) (re.union (str.to_re "(") (str.to_re ")))"))) (re.++ (re.* (re.union (str.to_re "***") (str.to_re "+"))) (re.++ (re.+ (re.* (str.to_re ","))) (re.++ (re.* (re.* (str.to_re "---"))) (re.++ (re.+ (re.+ (str.to_re "."))) (re.++ (re.+ (re.* (str.to_re "//"))) (re.++ (re.+ (re.* (str.to_re "::"))) (re.++ (re.* (re.union (str.to_re ";") (str.to_re "<"))) (re.++ (re.* (re.union (str.to_re "===") (str.to_re ">>"))) (re.++ (re.+ (re.union (str.to_re "???") (str.to_re "@"))) (re.++ (re.+ (re.+ (str.to_re "["))) (re.++ (re.+ (re.union (str.to_re "\\") (str.to_re "]]]"))) (re.++ (re.union (re.union (str.to_re "^^^") (str.to_re "__")) (re.union (str.to_re "```") (str.to_re "{{"))) (re.++ (re.union (re.* (str.to_re "|||")) (re.* (str.to_re "}}"))) (re.++ (re.+ (re.+ (str.to_re "~~~"))) (re.++ (re.* (re.union (str.to_re "0") (str.to_re "11"))) (re.++ (re.union (re.+ (str.to_re "222")) (re.+ (str.to_re "333"))) (re.++ (re.+ (re.+ (str.to_re "4"))) (re.++ (re.union (re.+ (str.to_re "55")) (re.+ (str.to_re "666"))) (re.++ (re.+ (re.union (str.to_re "777") (str.to_re "888"))) (re.++ (re.* (re.+ (str.to_re "999"))) (re.++ (re.* (re.union (str.to_re "a") (str.to_re "bb"))) (re.++ (re.union (re.* (str.to_re "c")) (re.* (str.to_re "ddd"))) (re.++ (re.* (re.union (str.to_re "eee") (str.to_re "fff"))) (re.++ (re.* (re.* (str.to_re "g"))) (re.++ (re.* (re.+ (str.to_re "hh"))) (re.++ (re.* (re.* (str.to_re "ii"))) (re.++ (re.* (re.* (str.to_re "jjj"))) (re.++ (re.* (re.+ (str.to_re "kk"))) (re.++ (re.* (re.union (str.to_re "lll") (str.to_re "mm"))) (re.++ (re.+ (re.+ (str.to_re "nn"))) (re.++ (re.+ (re.union (str.to_re "ooo") (str.to_re "ppp"))) (re.++ (re.union (re.+ (str.to_re "qq")) (re.+ (str.to_re "rrr"))) (re.++ (re.+ (re.* (str.to_re "s"))) (re.++ (re.union (re.* (str.to_re "ttt")) (re.* (str.to_re "uuu"))) (re.++ (re.* (re.+ (str.to_re "vv"))) (re.++ (re.* (re.* (str.to_re "www"))) (re.++ (re.+ (re.* (str.to_re "xx"))) (re.++ (re.union (re.* (str.to_re "yyy")) (re.* (str.to_re "zzz"))) (re.++ (re.+ (re.+ (str.to_re "A"))) (re.++ (re.+ (re.* (str.to_re "B"))) (re.++ (re.union (re.+ (str.to_re "CC")) (re.+ (str.to_re "D"))) (re.++ (re.union (re.+ (str.to_re "E")) (re.+ (str.to_re "FFF"))) (re.++ (re.union (re.union (str.to_re "GGG") (str.to_re "HHH")) (re.union (str.to_re "I") (str.to_re "J"))) (re.++ (re.* (re.* (str.to_re "KKK"))) (re.++ (re.union (re.* (str.to_re "L")) (re.* (str.to_re "M"))) (re.++ (re.* (re.* (str.to_re "NN"))) (re.++ (re.+ (re.+ (str.to_re "O"))) (re.++ (re.+ (re.* (str.to_re "PP"))) (re.++ (re.* (re.union (str.to_re "QQ") (str.to_re "RRR"))) (re.++ (re.union (re.union (str.to_re "SS") (str.to_re "TTT")) (re.union (str.to_re "UU") (str.to_re "VVV"))) (re.++ (re.+ (re.+ (str.to_re "WWW"))) (re.++ (re.union (re.union (str.to_re "XX") (str.to_re "YY")) (re.union (str.to_re "ZZ") (str.to_re "!!!"))) (re.++ (re.union (re.union (str.to_re """""""") (str.to_re "#")) (re.union (str.to_re "$") (str.to_re "%"))) (re.++ (re.* (re.+ (str.to_re "&&"))) (re.++ (re.union (re.* (str.to_re "''")) (re.* (str.to_re "(("))) (re.++ (re.* (re.+ (str.to_re ")))"))) (re.++ (re.* (re.union (str.to_re "***") (str.to_re "++"))) (re.++ (re.* (re.* (str.to_re ",,"))) (re.++ (re.union (re.+ (str.to_re "-")) (re.+ (str.to_re "..."))) (re.++ (re.+ (re.union (str.to_re "/") (str.to_re "::"))) (re.++ (re.union (re.union (str.to_re ";") (str.to_re "<<")) (re.union (str.to_re "==") (str.to_re ">>>"))) (re.++ (re.+ (re.union (str.to_re "???") (str.to_re "@"))) (re.++ (re.union (re.+ (str.to_re "[[")) (re.+ (str.to_re "\\"))) (re.++ (re.+ (re.union (str.to_re "]]") (str.to_re "^^^"))) (re.++ (re.* (re.* (str.to_re "_"))) (re.++ (re.union (re.+ (str.to_re "```")) (re.+ (str.to_re "{{{"))) (re.++ (re.* (re.* (str.to_re "||"))) (re.++ (re.+ (re.union (str.to_re "}") (str.to_re "~"))) (re.++ (re.union (re.union (str.to_re "00") (str.to_re "111")) (re.union (str.to_re "22") (str.to_re "33"))) (re.++ (re.union (re.+ (str.to_re "4")) (re.+ (str.to_re "555"))) (re.++ (re.+ (re.+ (str.to_re "6"))) (re.++ (re.* (re.+ (str.to_re "7"))) (re.++ (re.union (re.+ (str.to_re "8")) (re.+ (str.to_re "999"))) (re.++ (re.+ (re.union (str.to_re "aaa") (str.to_re "b"))) (re.++ (re.union (re.* (str.to_re "cc")) (re.* (str.to_re "d"))) (re.++ (re.union (re.* (str.to_re "e")) (re.* (str.to_re "f"))) (re.++ (re.union (re.* (str.to_re "g")) (re.* (str.to_re "hh"))) (re.++ (re.union (re.* (str.to_re "i")) (re.* (str.to_re "jj"))) (re.++ (re.union (re.union (str.to_re "kk") (str.to_re "ll")) (re.union (str.to_re "mmm") (str.to_re "nn"))) (re.++ (re.+ (re.union (str.to_re "ooo") (str.to_re "ppp"))) (re.++ (re.* (re.+ (str.to_re "qqq"))) (re.++ (re.+ (re.union (str.to_re "rr") (str.to_re "sss"))) (re.++ (re.* (re.* (str.to_re "ttt"))) (re.++ (re.* (re.+ (str.to_re "uu"))) (re.++ (re.+ (re.+ (str.to_re "v"))) (re.union (re.union (str.to_re "www") (str.to_re "x")) (re.union (str.to_re "y") (str.to_re "zzz"))))))))))))))))))))))))))))))))))))))))))))))))))))))))))))))))))))))))))))))))))))))))))))))))))))))))))))))))))))))))))))
(check-sat)